
Gurobi 11.0.0 (win64) logging started Mon May 13 17:11:41 2024

Set parameter LogFile to value "./Results/StripPacking-BranchingRuleRuns/Logs/SUb-010-StripPacking-10.log"
Set parameter TimeLimit to value 10800
Set parameter Cuts to value 0
Set parameter Presolve to value 1
Set parameter Heuristics to value 0
Set parameter LPWarmStart to value 2

Gurobi 11.0.0 (win64) logging started Mon May 13 17:24:31 2024

Set parameter LogFile to value "./Results/StripPacking-BranchingRuleRuns/Logs/SUb-010-StripPacking-10.log"
Set parameter TimeLimit to value 10800
Set parameter Cuts to value 0
Set parameter Presolve to value 1
Set parameter Heuristics to value 0
Set parameter LPWarmStart to value 2

Gurobi 11.0.0 (win64) logging started Mon May 13 17:24:46 2024

Set parameter LogFile to value "./Results/StripPacking-BranchingRuleRuns/Logs/SUb-010-StripPacking-10.log"
Set parameter TimeLimit to value 10800
Set parameter Cuts to value 0
Set parameter Presolve to value 1
Set parameter Heuristics to value 0
Set parameter LPWarmStart to value 2

Gurobi 11.0.0 (win64) logging started Mon May 13 17:25:46 2024

Set parameter LogFile to value "./Results/StripPacking-BranchingRuleRuns/Logs/SUb-010-StripPacking-10.log"
Set parameter TimeLimit to value 10800
Set parameter Cuts to value 0
Set parameter Presolve to value 1
Set parameter Heuristics to value 0
Set parameter LPWarmStart to value 2

Gurobi 11.0.0 (win64) logging started Mon May 13 17:26:13 2024

Set parameter LogFile to value "./Results/StripPacking-BranchingRuleRuns/Logs/SUb-010-StripPacking-10.log"
Set parameter TimeLimit to value 10800
Set parameter Cuts to value 0
Set parameter Presolve to value 1
Set parameter Heuristics to value 0
Set parameter LPWarmStart to value 2

Gurobi 11.0.0 (win64) logging started Mon May 13 17:29:52 2024

Set parameter LogFile to value "./Results/StripPacking-BranchingRuleRuns/Logs/SUb-010-StripPacking-10.log"
Set parameter TimeLimit to value 10800
Set parameter Cuts to value 0
Set parameter Presolve to value 1
Set parameter Heuristics to value 0
Set parameter LPWarmStart to value 2
Gurobi Optimizer version 11.0.0 build v11.0.0rc2 (win64 - Windows 10.0 (19045.2))

CPU model: Intel(R) Core(TM) i9-10980XE CPU @ 3.00GHz, instruction set [SSE2|AVX|AVX2|AVX512]
Thread count: 18 physical cores, 36 logical processors, using up to 18 threads

Optimize a model with 595 rows, 201 columns and 1460 nonzeros
Model fingerprint: 0x79f9ed92
Variable types: 21 continuous, 180 integer (180 binary)
Coefficient statistics:
  Matrix range     [1e+00, 1e+04]
  Objective range  [1e+00, 1e+00]
  Bounds range     [1e+00, 1e+04]
  RHS range        [1e+00, 1e+04]
Using branch priorities.

Warning: Completing partial solution with 180 unfixed non-continuous variables out of 180
User MIP start produced solution with objective 50 (0.02s)
Loaded user MIP start with objective 50

Presolve removed 128 rows and 22 columns
Presolve time: 0.00s
Presolved: 467 rows, 179 columns, 1392 nonzeros
Variable types: 21 continuous, 158 integer (158 binary)

Root relaxation: objective 3.500000e+01, 118 iterations, 0.00 seconds (0.00 work units)

    Nodes    |    Current Node    |     Objective Bounds      |     Work
 Expl Unexpl |  Obj  Depth IntInf | Incumbent    BestBd   Gap | It/Node Time

     0     0   35.00000    0    3   50.00000   35.00000  30.0%     -    0s
     0     0   35.00000    0    3   50.00000   35.00000  30.0%     -    0s
     0     2   35.00000    0    3   50.00000   35.00000  30.0%     -    0s
*   56    66               5      47.0000000   35.00000  25.5%   6.6    0s
*  203   201               9      46.0000000   35.00000  23.9%   8.6    0s
*  486   362              21      44.0000000   35.00000  20.5%  10.2    0s
*  719   433              16      41.0000000   35.00000  14.6%   9.2    0s
* 7972  1002              25      40.0000000   37.00000  7.50%   5.4    0s
*10761   926              19      39.0000000   38.00000  2.56%   5.2    1s

Explored 20893 nodes (109926 simplex iterations) in 1.88 seconds (0.30 work units)
Thread count was 18 (of 36 available processors)

Solution count 7: 39 40 41 ... 50

Optimal solution found (tolerance 1.00e-04)
Best objective 3.900000000000e+01, best bound 3.900000000000e+01, gap 0.0000%

Gurobi 11.0.0 (win64) logging started Mon May 13 17:32:02 2024

Set parameter LogFile to value "./Results/StripPacking-BranchingRuleRuns/Logs/SUb-010-StripPacking-10.log"
Set parameter TimeLimit to value 10800
Set parameter Cuts to value 0
Set parameter Presolve to value 1
Set parameter Heuristics to value 0
Set parameter LPWarmStart to value 2
Gurobi Optimizer version 11.0.0 build v11.0.0rc2 (win64 - Windows 10.0 (19045.2))

CPU model: Intel(R) Core(TM) i9-10980XE CPU @ 3.00GHz, instruction set [SSE2|AVX|AVX2|AVX512]
Thread count: 18 physical cores, 36 logical processors, using up to 18 threads

Optimize a model with 595 rows, 201 columns and 1460 nonzeros
Model fingerprint: 0x79f9ed92
Variable types: 21 continuous, 180 integer (180 binary)
Coefficient statistics:
  Matrix range     [1e+00, 1e+04]
  Objective range  [1e+00, 1e+00]
  Bounds range     [1e+00, 1e+04]
  RHS range        [1e+00, 1e+04]
Using branch priorities.

Warning: Completing partial solution with 180 unfixed non-continuous variables out of 180
User MIP start produced solution with objective 50 (0.02s)
Loaded user MIP start with objective 50

Presolve removed 128 rows and 22 columns
Presolve time: 0.00s
Presolved: 467 rows, 179 columns, 1392 nonzeros
Variable types: 21 continuous, 158 integer (158 binary)

Root relaxation: objective 3.500000e+01, 118 iterations, 0.02 seconds (0.00 work units)

    Nodes    |    Current Node    |     Objective Bounds      |     Work
 Expl Unexpl |  Obj  Depth IntInf | Incumbent    BestBd   Gap | It/Node Time

     0     0   35.00000    0    3   50.00000   35.00000  30.0%     -    0s
     0     0   35.00000    0    3   50.00000   35.00000  30.0%     -    0s
     0     2   35.00000    0    3   50.00000   35.00000  30.0%     -    0s
*   56    66               5      47.0000000   35.00000  25.5%   6.6    0s
*  203   201               9      46.0000000   35.00000  23.9%   8.6    0s
*  486   362              21      44.0000000   35.00000  20.5%  10.2    0s
*  719   433              16      41.0000000   35.00000  14.6%   9.2    0s
* 7972  1002              25      40.0000000   37.00000  7.50%   5.4    0s
*10761   926              19      39.0000000   38.00000  2.56%   5.2    0s

Explored 20893 nodes (109926 simplex iterations) in 1.37 seconds (0.30 work units)
Thread count was 18 (of 36 available processors)

Solution count 7: 39 40 41 ... 50

Optimal solution found (tolerance 1.00e-04)
Best objective 3.900000000000e+01, best bound 3.900000000000e+01, gap 0.0000%

Gurobi 11.0.0 (win64) logging started Mon May 13 17:34:32 2024

Set parameter LogFile to value "./Results/StripPacking-BranchingRuleRuns/Logs/SUb-010-StripPacking-10.log"
Set parameter TimeLimit to value 10800
Set parameter Cuts to value 0
Set parameter Presolve to value 1
Set parameter Heuristics to value 0
Set parameter LPWarmStart to value 2
Gurobi Optimizer version 11.0.0 build v11.0.0rc2 (win64 - Windows 10.0 (19045.2))

CPU model: Intel(R) Core(TM) i9-10980XE CPU @ 3.00GHz, instruction set [SSE2|AVX|AVX2|AVX512]
Thread count: 18 physical cores, 36 logical processors, using up to 18 threads

Optimize a model with 595 rows, 201 columns and 1460 nonzeros
Model fingerprint: 0x79f9ed92
Variable types: 21 continuous, 180 integer (180 binary)
Coefficient statistics:
  Matrix range     [1e+00, 1e+04]
  Objective range  [1e+00, 1e+00]
  Bounds range     [1e+00, 1e+04]
  RHS range        [1e+00, 1e+04]
Using branch priorities.

Warning: Completing partial solution with 180 unfixed non-continuous variables out of 180
User MIP start produced solution with objective 50 (0.00s)
Loaded user MIP start with objective 50

Presolve removed 128 rows and 22 columns
Presolve time: 0.01s
Presolved: 467 rows, 179 columns, 1392 nonzeros
Variable types: 21 continuous, 158 integer (158 binary)

Root relaxation: objective 3.500000e+01, 118 iterations, 0.00 seconds (0.00 work units)

    Nodes    |    Current Node    |     Objective Bounds      |     Work
 Expl Unexpl |  Obj  Depth IntInf | Incumbent    BestBd   Gap | It/Node Time

     0     0   35.00000    0    3   50.00000   35.00000  30.0%     -    0s
     0     0   35.00000    0    3   50.00000   35.00000  30.0%     -    0s
     0     2   35.00000    0    3   50.00000   35.00000  30.0%     -    0s
*   56    66               5      47.0000000   35.00000  25.5%   6.6    0s
*  203   201               9      46.0000000   35.00000  23.9%   8.6    0s
*  486   362              21      44.0000000   35.00000  20.5%  10.2    0s
*  719   433              16      41.0000000   35.00000  14.6%   9.2    0s
* 7972  1002              25      40.0000000   37.00000  7.50%   5.4    0s
*10761   926              19      39.0000000   38.00000  2.56%   5.2    0s

Explored 20893 nodes (109926 simplex iterations) in 0.45 seconds (0.30 work units)
Thread count was 18 (of 36 available processors)

Solution count 7: 39 40 41 ... 50

Optimal solution found (tolerance 1.00e-04)
Best objective 3.900000000000e+01, best bound 3.900000000000e+01, gap 0.0000%
